#######################



#######################
Set parameter TimeLimit to value 300
Set parameter SoftMemLimit to value 125
Set parameter LogFile to value 1003-MIPFocus0-Presolve2-TimeLimit300-k16x240-3.log
Set parameter Presolve to value 2
Set parameter Seed to value 3
Using license file /opt/gurobi/gurobi.lic

Gurobi Optimizer version 10.0.3 build v10.0.3rc0 (linux64)
Copyright (c) 2023, Gurobi Optimization, LLC

Read MPS format model from file /miplib2010/k16x240.mps.bz2
Reading time = 0.00 seconds
k16x240: 256 rows, 480 columns, 960 nonzeros

CPU model: Intel(R) Xeon(R) E-2388G CPU @ 3.20GHz, instruction set [SSE2|AVX|AVX2|AVX512]
Thread count: 8 physical cores, 16 logical processors, using up to 16 threads

Optimize a model with 256 rows, 480 columns and 960 nonzeros
Model fingerprint: 0x4e80885f
Variable types: 240 continuous, 240 integer (240 binary)
Coefficient statistics:
  Matrix range     [1e+00, 1e+03]
  Objective range  [1e+00, 1e+03]
  Bounds range     [1e+00, 1e+03]
  RHS range        [4e+00, 4e+02]
Found heuristic solution: objective 20220.000000
Presolve time: 0.00s
Presolved: 256 rows, 480 columns, 960 nonzeros
Variable types: 240 continuous, 240 integer (240 binary)
Root relaxation presolve removed 241 rows and 240 columns
Root relaxation presolved: 15 rows, 240 columns, 450 nonzeros


Root relaxation: objective 2.769838e+03, 16 iterations, 0.00 seconds (0.00 work units)

    Nodes    |    Current Node    |     Objective Bounds      |     Work
 Expl Unexpl |  Obj  Depth IntInf | Incumbent    BestBd   Gap | It/Node Time

     0     0 2769.83800    0   14 20220.0000 2769.83800  86.3%     -    0s
H    0     0                    11359.000000 2769.83800  75.6%     -    0s
H    0     0                    11331.000000 8084.69631  28.6%     -    0s
     0     0 8084.69631    0   26 11331.0000 8084.69631  28.6%     -    0s
H    0     0                    10765.000000 8084.69631  24.9%     -    0s
     0     0 8528.16906    0   24 10765.0000 8528.16906  20.8%     -    0s
     0     0 8539.18062    0   32 10765.0000 8539.18062  20.7%     -    0s
     0     0 8548.03675    0   29 10765.0000 8548.03675  20.6%     -    0s
     0     0 8706.03345    0   35 10765.0000 8706.03345  19.1%     -    0s
     0     0 8790.97471    0   31 10765.0000 8790.97471  18.3%     -    0s
     0     0 8793.94750    0   31 10765.0000 8793.94750  18.3%     -    0s
     0     0 8851.40446    0   28 10765.0000 8851.40446  17.8%     -    0s
     0     0 8868.11290    0   40 10765.0000 8868.11290  17.6%     -    0s
     0     0 8876.81560    0   35 10765.0000 8876.81560  17.5%     -    0s
     0     0 8879.06668    0   32 10765.0000 8879.06668  17.5%     -    0s
     0     0 9020.71855    0   32 10765.0000 9020.71855  16.2%     -    0s
     0     0 9033.28880    0   36 10765.0000 9033.28880  16.1%     -    0s
     0     0 9038.18873    0   29 10765.0000 9038.18873  16.0%     -    0s
     0     0 9075.66246    0   38 10765.0000 9075.66246  15.7%     -    0s
     0     0 9075.66246    0   38 10765.0000 9075.66246  15.7%     -    0s
     0     2 9075.66246    0   38 10765.0000 9075.66246  15.7%     -    0s
H   31    38                    10681.000000 9154.63397  14.3%  37.4    0s
H   74    73                    10674.000000 9154.63397  14.2%  28.7    0s
 30592 11108 10239.8429   36   25 10674.0000 10047.8804  5.87%  26.4    5s
 68489 16209 10652.4301   26   13 10674.0000 10239.6619  4.07%  28.1   10s
 108078 14380 10602.9827   30   12 10674.0000 10384.0781  2.72%  28.6   15s

Cutting planes:
  Gomory: 3
  Lift-and-project: 17
  Cover: 79
  Implied bound: 13
  MIR: 169
  Flow cover: 317
  Flow path: 49
  Inf proof: 2
  Zero half: 12
  Network: 58
  Relax-and-lift: 3

Explored 146411 nodes (4051171 simplex iterations) in 19.42 seconds (29.78 work units)
Thread count was 16 (of 16 available processors)

Solution count 6: 10674 10681 10765 ... 20220

Optimal solution found (tolerance 1.00e-04)
Best objective 1.067400000000e+04, best bound 1.067400000000e+04, gap 0.0000%
